\ Model Sudoku Problem
\ LP format - for model browsing. Use MPS format to capture full model detail.
Minimize
 
Subject To
 R0: x_1_1 + x_1_2 + x_1_3 + x_1_4 + x_1_5 + x_1_6 + x_1_7 + x_1_8 + x_1_9
   + x_1_10 + x_1_11 + x_1_12 + x_1_13 + x_1_14 + x_1_15 + x_1_16 + x_1_17
   + x_1_18 + x_1_19 + x_1_20 + x_1_21 + x_1_22 + x_1_23 + x_1_24 + x_1_25
   = 3.3554406e+07
 R1: x_2_1 + x_2_2 + x_2_3 + x_2_4 + x_2_5 + x_2_6 + x_2_7 + x_2_8 + x_2_9
   + x_2_10 + x_2_11 + x_2_12 + x_2_13 + x_2_14 + x_2_15 + x_2_16 + x_2_17
   + x_2_18 + x_2_19 + x_2_20 + x_2_21 + x_2_22 + x_2_23 + x_2_24 + x_2_25
   = 3.3554406e+07
 R2: x_3_1 + x_3_2 + x_3_3 + x_3_4 + x_3_5 + x_3_6 + x_3_7 + x_3_8 + x_3_9
   + x_3_10 + x_3_11 + x_3_12 + x_3_13 + x_3_14 + x_3_15 + x_3_16 + x_3_17
   + x_3_18 + x_3_19 + x_3_20 + x_3_21 + x_3_22 + x_3_23 + x_3_24 + x_3_25
   = 3.3554406e+07
 R3: x_4_1 + x_4_2 + x_4_3 + x_4_4 + x_4_5 + x_4_6 + x_4_7 + x_4_8 + x_4_9
   + x_4_10 + x_4_11 + x_4_12 + x_4_13 + x_4_14 + x_4_15 + x_4_16 + x_4_17
   + x_4_18 + x_4_19 + x_4_20 + x_4_21 + x_4_22 + x_4_23 + x_4_24 + x_4_25
   = 3.3554406e+07
 R4: x_5_1 + x_5_2 + x_5_3 + x_5_4 + x_5_5 + x_5_6 + x_5_7 + x_5_8 + x_5_9
   + x_5_10 + x_5_11 + x_5_12 + x_5_13 + x_5_14 + x_5_15 + x_5_16 + x_5_17
   + x_5_18 + x_5_19 + x_5_20 + x_5_21 + x_5_22 + x_5_23 + x_5_24 + x_5_25
   = 3.3554406e+07
 R5: x_6_1 + x_6_2 + x_6_3 + x_6_4 + x_6_5 + x_6_6 + x_6_7 + x_6_8 + x_6_9
   + x_6_10 + x_6_11 + x_6_12 + x_6_13 + x_6_14 + x_6_15 + x_6_16 + x_6_17
   + x_6_18 + x_6_19 + x_6_20 + x_6_21 + x_6_22 + x_6_23 + x_6_24 + x_6_25
   = 3.3554406e+07
 R6: x_7_1 + x_7_2 + x_7_3 + x_7_4 + x_7_5 + x_7_6 + x_7_7 + x_7_8 + x_7_9
   + x_7_10 + x_7_11 + x_7_12 + x_7_13 + x_7_14 + x_7_15 + x_7_16 + x_7_17
   + x_7_18 + x_7_19 + x_7_20 + x_7_21 + x_7_22 + x_7_23 + x_7_24 + x_7_25
   = 3.3554406e+07
 R7: x_8_1 + x_8_2 + x_8_3 + x_8_4 + x_8_5 + x_8_6 + x_8_7 + x_8_8 + x_8_9
   + x_8_10 + x_8_11 + x_8_12 + x_8_13 + x_8_14 + x_8_15 + x_8_16 + x_8_17
   + x_8_18 + x_8_19 + x_8_20 + x_8_21 + x_8_22 + x_8_23 + x_8_24 + x_8_25
   = 3.3554406e+07
 R8: x_9_1 + x_9_2 + x_9_3 + x_9_4 + x_9_5 + x_9_6 + x_9_7 + x_9_8 + x_9_9
   + x_9_10 + x_9_11 + x_9_12 + x_9_13 + x_9_14 + x_9_15 + x_9_16 + x_9_17
   + x_9_18 + x_9_19 + x_9_20 + x_9_21 + x_9_22 + x_9_23 + x_9_24 + x_9_25
   = 3.3554406e+07
 R9: x_10_1 + x_10_2 + x_10_3 + x_10_4 + x_10_5 + x_10_6 + x_10_7 + x_10_8
   + x_10_9 + x_10_10 + x_10_11 + x_10_12 + x_10_13 + x_10_14 + x_10_15
   + x_10_16 + x_10_17 + x_10_18 + x_10_19 + x_10_20 + x_10_21 + x_10_22
   + x_10_23 + x_10_24 + x_10_25 = 3.3554406e+07
 R10: x_11_1 + x_11_2 + x_11_3 + x_11_4 + x_11_5 + x_11_6 + x_11_7 + x_11_8
   + x_11_9 + x_11_10 + x_11_11 + x_11_12 + x_11_13 + x_11_14 + x_11_15
   + x_11_16 + x_11_17 + x_11_18 + x_11_19 + x_11_20 + x_11_21 + x_11_22
   + x_11_23 + x_11_24 + x_11_25 = 3.3554406e+07
 R11: x_12_1 + x_12_2 + x_12_3 + x_12_4 + x_12_5 + x_12_6 + x_12_7 + x_12_8
   + x_12_9 + x_12_10 + x_12_11 + x_12_12 + x_12_13 + x_12_14 + x_12_15
   + x_12_16 + x_12_17 + x_12_18 + x_12_19 + x_12_20 + x_12_21 + x_12_22
   + x_12_23 + x_12_24 + x_12_25 = 3.3554406e+07
 R12: x_13_1 + x_13_2 + x_13_3 + x_13_4 + x_13_5 + x_13_6 + x_13_7 + x_13_8
   + x_13_9 + x_13_10 + x_13_11 + x_13_12 + x_13_13 + x_13_14 + x_13_15
   + x_13_16 + x_13_17 + x_13_18 + x_13_19 + x_13_20 + x_13_21 + x_13_22
   + x_13_23 + x_13_24 + x_13_25 = 3.3554406e+07
 R13: x_14_1 + x_14_2 + x_14_3 + x_14_4 + x_14_5 + x_14_6 + x_14_7 + x_14_8
   + x_14_9 + x_14_10 + x_14_11 + x_14_12 + x_14_13 + x_14_14 + x_14_15
   + x_14_16 + x_14_17 + x_14_18 + x_14_19 + x_14_20 + x_14_21 + x_14_22
   + x_14_23 + x_14_24 + x_14_25 = 3.3554406e+07
 R14: x_15_1 + x_15_2 + x_15_3 + x_15_4 + x_15_5 + x_15_6 + x_15_7 + x_15_8
   + x_15_9 + x_15_10 + x_15_11 + x_15_12 + x_15_13 + x_15_14 + x_15_15
   + x_15_16 + x_15_17 + x_15_18 + x_15_19 + x_15_20 + x_15_21 + x_15_22
   + x_15_23 + x_15_24 + x_15_25 = 3.3554406e+07
 R15: x_16_1 + x_16_2 + x_16_3 + x_16_4 + x_16_5 + x_16_6 + x_16_7 + x_16_8
   + x_16_9 + x_16_10 + x_16_11 + x_16_12 + x_16_13 + x_16_14 + x_16_15
   + x_16_16 + x_16_17 + x_16_18 + x_16_19 + x_16_20 + x_16_21 + x_16_22
   + x_16_23 + x_16_24 + x_16_25 = 3.3554406e+07
 R16: x_17_1 + x_17_2 + x_17_3 + x_17_4 + x_17_5 + x_17_6 + x_17_7 + x_17_8
   + x_17_9 + x_17_10 + x_17_11 + x_17_12 + x_17_13 + x_17_14 + x_17_15
   + x_17_16 + x_17_17 + x_17_18 + x_17_19 + x_17_20 + x_17_21 + x_17_22
   + x_17_23 + x_17_24 + x_17_25 = 3.3554406e+07
 R17: x_18_1 + x_18_2 + x_18_3 + x_18_4 + x_18_5 + x_18_6 + x_18_7 + x_18_8
   + x_18_9 + x_18_10 + x_18_11 + x_18_12 + x_18_13 + x_18_14 + x_18_15
   + x_18_16 + x_18_17 + x_18_18 + x_18_19 + x_18_20 + x_18_21 + x_18_22
   + x_18_23 + x_18_24 + x_18_25 = 3.3554406e+07
 R18: x_19_1 + x_19_2 + x_19_3 + x_19_4 + x_19_5 + x_19_6 + x_19_7 + x_19_8
   + x_19_9 + x_19_10 + x_19_11 + x_19_12 + x_19_13 + x_19_14 + x_19_15
   + x_19_16 + x_19_17 + x_19_18 + x_19_19 + x_19_20 + x_19_21 + x_19_22
   + x_19_23 + x_19_24 + x_19_25 = 3.3554406e+07
 R19: x_20_1 + x_20_2 + x_20_3 + x_20_4 + x_20_5 + x_20_6 + x_20_7 + x_20_8
   + x_20_9 + x_20_10 + x_20_11 + x_20_12 + x_20_13 + x_20_14 + x_20_15
   + x_20_16 + x_20_17 + x_20_18 + x_20_19 + x_20_20 + x_20_21 + x_20_22
   + x_20_23 + x_20_24 + x_20_25 = 3.3554406e+07
 R20: x_21_1 + x_21_2 + x_21_3 + x_21_4 + x_21_5 + x_21_6 + x_21_7 + x_21_8
   + x_21_9 + x_21_10 + x_21_11 + x_21_12 + x_21_13 + x_21_14 + x_21_15
   + x_21_16 + x_21_17 + x_21_18 + x_21_19 + x_21_20 + x_21_21 + x_21_22
   + x_21_23 + x_21_24 + x_21_25 = 3.3554406e+07
 R21: x_22_1 + x_22_2 + x_22_3 + x_22_4 + x_22_5 + x_22_6 + x_22_7 + x_22_8
   + x_22_9 + x_22_10 + x_22_11 + x_22_12 + x_22_13 + x_22_14 + x_22_15
   + x_22_16 + x_22_17 + x_22_18 + x_22_19 + x_22_20 + x_22_21 + x_22_22
   + x_22_23 + x_22_24 + x_22_25 = 3.3554406e+07
 R22: x_23_1 + x_23_2 + x_23_3 + x_23_4 + x_23_5 + x_23_6 + x_23_7 + x_23_8
   + x_23_9 + x_23_10 + x_23_11 + x_23_12 + x_23_13 + x_23_14 + x_23_15
   + x_23_16 + x_23_17 + x_23_18 + x_23_19 + x_23_20 + x_23_21 + x_23_22
   + x_23_23 + x_23_24 + x_23_25 = 3.3554406e+07
 R23: x_24_1 + x_24_2 + x_24_3 + x_24_4 + x_24_5 + x_24_6 + x_24_7 + x_24_8
   + x_24_9 + x_24_10 + x_24_11 + x_24_12 + x_24_13 + x_24_14 + x_24_15
   + x_24_16 + x_24_17 + x_24_18 + x_24_19 + x_24_20 + x_24_21 + x_24_22
   + x_24_23 + x_24_24 + x_24_25 = 3.3554406e+07
 R24: x_25_1 + x_25_2 + x_25_3 + x_25_4 + x_25_5 + x_25_6 + x_25_7 + x_25_8
   + x_25_9 + x_25_10 + x_25_11 + x_25_12 + x_25_13 + x_25_14 + x_25_15
   + x_25_16 + x_25_17 + x_25_18 + x_25_19 + x_25_20 + x_25_21 + x_25_22
   + x_25_23 + x_25_24 + x_25_25 = 3.3554406e+07
 R25: x_1_1 + x_2_1 + x_3_1 + x_4_1 + x_5_1 + x_6_1 + x_7_1 + x_8_1 + x_9_1
   + x_10_1 + x_11_1 + x_12_1 + x_13_1 + x_14_1 + x_15_1 + x_16_1 + x_17_1
   + x_18_1 + x_19_1 + x_20_1 + x_21_1 + x_22_1 + x_23_1 + x_24_1 + x_25_1
   = 3.3554406e+07
 R26: x_1_2 + x_2_2 + x_3_2 + x_4_2 + x_5_2 + x_6_2 + x_7_2 + x_8_2 + x_9_2
   + x_10_2 + x_11_2 + x_12_2 + x_13_2 + x_14_2 + x_15_2 + x_16_2 + x_17_2
   + x_18_2 + x_19_2 + x_20_2 + x_21_2 + x_22_2 + x_23_2 + x_24_2 + x_25_2
   = 3.3554406e+07
 R27: x_1_3 + x_2_3 + x_3_3 + x_4_3 + x_5_3 + x_6_3 + x_7_3 + x_8_3 + x_9_3
   + x_10_3 + x_11_3 + x_12_3 + x_13_3 + x_14_3 + x_15_3 + x_16_3 + x_17_3
   + x_18_3 + x_19_3 + x_20_3 + x_21_3 + x_22_3 + x_23_3 + x_24_3 + x_25_3
   = 3.3554406e+07
 R28: x_1_4 + x_2_4 + x_3_4 + x_4_4 + x_5_4 + x_6_4 + x_7_4 + x_8_4 + x_9_4
   + x_10_4 + x_11_4 + x_12_4 + x_13_4 + x_14_4 + x_15_4 + x_16_4 + x_17_4
   + x_18_4 + x_19_4 + x_20_4 + x_21_4 + x_22_4 + x_23_4 + x_24_4 + x_25_4
   = 3.3554406e+07
 R29: x_1_5 + x_2_5 + x_3_5 + x_4_5 + x_5_5 + x_6_5 + x_7_5 + x_8_5 + x_9_5
   + x_10_5 + x_11_5 + x_12_5 + x_13_5 + x_14_5 + x_15_5 + x_16_5 + x_17_5
   + x_18_5 + x_19_5 + x_20_5 + x_21_5 + x_22_5 + x_23_5 + x_24_5 + x_25_5
   = 3.3554406e+07
 R30: x_1_6 + x_2_6 + x_3_6 + x_4_6 + x_5_6 + x_6_6 + x_7_6 + x_8_6 + x_9_6
   + x_10_6 + x_11_6 + x_12_6 + x_13_6 + x_14_6 + x_15_6 + x_16_6 + x_17_6
   + x_18_6 + x_19_6 + x_20_6 + x_21_6 + x_22_6 + x_23_6 + x_24_6 + x_25_6
   = 3.3554406e+07
 R31: x_1_7 + x_2_7 + x_3_7 + x_4_7 + x_5_7 + x_6_7 + x_7_7 + x_8_7 + x_9_7
   + x_10_7 + x_11_7 + x_12_7 + x_13_7 + x_14_7 + x_15_7 + x_16_7 + x_17_7
   + x_18_7 + x_19_7 + x_20_7 + x_21_7 + x_22_7 + x_23_7 + x_24_7 + x_25_7
   = 3.3554406e+07
 R32: x_1_8 + x_2_8 + x_3_8 + x_4_8 + x_5_8 + x_6_8 + x_7_8 + x_8_8 + x_9_8
   + x_10_8 + x_11_8 + x_12_8 + x_13_8 + x_14_8 + x_15_8 + x_16_8 + x_17_8
   + x_18_8 + x_19_8 + x_20_8 + x_21_8 + x_22_8 + x_23_8 + x_24_8 + x_25_8
   = 3.3554406e+07
 R33: x_1_9 + x_2_9 + x_3_9 + x_4_9 + x_5_9 + x_6_9 + x_7_9 + x_8_9 + x_9_9
   + x_10_9 + x_11_9 + x_12_9 + x_13_9 + x_14_9 + x_15_9 + x_16_9 + x_17_9
   + x_18_9 + x_19_9 + x_20_9 + x_21_9 + x_22_9 + x_23_9 + x_24_9 + x_25_9
   = 3.3554406e+07
 R34: x_1_10 + x_2_10 + x_3_10 + x_4_10 + x_5_10 + x_6_10 + x_7_10 + x_8_10
   + x_9_10 + x_10_10 + x_11_10 + x_12_10 + x_13_10 + x_14_10 + x_15_10
   + x_16_10 + x_17_10 + x_18_10 + x_19_10 + x_20_10 + x_21_10 + x_22_10
   + x_23_10 + x_24_10 + x_25_10 = 3.3554406e+07
 R35: x_1_11 + x_2_11 + x_3_11 + x_4_11 + x_5_11 + x_6_11 + x_7_11 + x_8_11
   + x_9_11 + x_10_11 + x_11_11 + x_12_11 + x_13_11 + x_14_11 + x_15_11
   + x_16_11 + x_17_11 + x_18_11 + x_19_11 + x_20_11 + x_21_11 + x_22_11
   + x_23_11 + x_24_11 + x_25_11 = 3.3554406e+07
 R36: x_1_12 + x_2_12 + x_3_12 + x_4_12 + x_5_12 + x_6_12 + x_7_12 + x_8_12
   + x_9_12 + x_10_12 + x_11_12 + x_12_12 + x_13_12 + x_14_12 + x_15_12
   + x_16_12 + x_17_12 + x_18_12 + x_19_12 + x_20_12 + x_21_12 + x_22_12
   + x_23_12 + x_24_12 + x_25_12 = 3.3554406e+07
 R37: x_1_13 + x_2_13 + x_3_13 + x_4_13 + x_5_13 + x_6_13 + x_7_13 + x_8_13
   + x_9_13 + x_10_13 + x_11_13 + x_12_13 + x_13_13 + x_14_13 + x_15_13
   + x_16_13 + x_17_13 + x_18_13 + x_19_13 + x_20_13 + x_21_13 + x_22_13
   + x_23_13 + x_24_13 + x_25_13 = 3.3554406e+07
 R38: x_1_14 + x_2_14 + x_3_14 + x_4_14 + x_5_14 + x_6_14 + x_7_14 + x_8_14
   + x_9_14 + x_10_14 + x_11_14 + x_12_14 + x_13_14 + x_14_14 + x_15_14
   + x_16_14 + x_17_14 + x_18_14 + x_19_14 + x_20_14 + x_21_14 + x_22_14
   + x_23_14 + x_24_14 + x_25_14 = 3.3554406e+07
 R39: x_1_15 + x_2_15 + x_3_15 + x_4_15 + x_5_15 + x_6_15 + x_7_15 + x_8_15
   + x_9_15 + x_10_15 + x_11_15 + x_12_15 + x_13_15 + x_14_15 + x_15_15
   + x_16_15 + x_17_15 + x_18_15 + x_19_15 + x_20_15 + x_21_15 + x_22_15
   + x_23_15 + x_24_15 + x_25_15 = 3.3554406e+07
 R40: x_1_16 + x_2_16 + x_3_16 + x_4_16 + x_5_16 + x_6_16 + x_7_16 + x_8_16
   + x_9_16 + x_10_16 + x_11_16 + x_12_16 + x_13_16 + x_14_16 + x_15_16
   + x_16_16 + x_17_16 + x_18_16 + x_19_16 + x_20_16 + x_21_16 + x_22_16
   + x_23_16 + x_24_16 + x_25_16 = 3.3554406e+07
 R41: x_1_17 + x_2_17 + x_3_17 + x_4_17 + x_5_17 + x_6_17 + x_7_17 + x_8_17
   + x_9_17 + x_10_17 + x_11_17 + x_12_17 + x_13_17 + x_14_17 + x_15_17
   + x_16_17 + x_17_17 + x_18_17 + x_19_17 + x_20_17 + x_21_17 + x_22_17
   + x_23_17 + x_24_17 + x_25_17 = 3.3554406e+07
 R42: x_1_18 + x_2_18 + x_3_18 + x_4_18 + x_5_18 + x_6_18 + x_7_18 + x_8_18
   + x_9_18 + x_10_18 + x_11_18 + x_12_18 + x_13_18 + x_14_18 + x_15_18
   + x_16_18 + x_17_18 + x_18_18 + x_19_18 + x_20_18 + x_21_18 + x_22_18
   + x_23_18 + x_24_18 + x_25_18 = 3.3554406e+07
 R43: x_1_19 + x_2_19 + x_3_19 + x_4_19 + x_5_19 + x_6_19 + x_7_19 + x_8_19
   + x_9_19 + x_10_19 + x_11_19 + x_12_19 + x_13_19 + x_14_19 + x_15_19
   + x_16_19 + x_17_19 + x_18_19 + x_19_19 + x_20_19 + x_21_19 + x_22_19
   + x_23_19 + x_24_19 + x_25_19 = 3.3554406e+07
 R44: x_1_20 + x_2_20 + x_3_20 + x_4_20 + x_5_20 + x_6_20 + x_7_20 + x_8_20
   + x_9_20 + x_10_20 + x_11_20 + x_12_20 + x_13_20 + x_14_20 + x_15_20
   + x_16_20 + x_17_20 + x_18_20 + x_19_20 + x_20_20 + x_21_20 + x_22_20
   + x_23_20 + x_24_20 + x_25_20 = 3.3554406e+07
 R45: x_1_21 + x_2_21 + x_3_21 + x_4_21 + x_5_21 + x_6_21 + x_7_21 + x_8_21
   + x_9_21 + x_10_21 + x_11_21 + x_12_21 + x_13_21 + x_14_21 + x_15_21
   + x_16_21 + x_17_21 + x_18_21 + x_19_21 + x_20_21 + x_21_21 + x_22_21
   + x_23_21 + x_24_21 + x_25_21 = 3.3554406e+07
 R46: x_1_22 + x_2_22 + x_3_22 + x_4_22 + x_5_22 + x_6_22 + x_7_22 + x_8_22
   + x_9_22 + x_10_22 + x_11_22 + x_12_22 + x_13_22 + x_14_22 + x_15_22
   + x_16_22 + x_17_22 + x_18_22 + x_19_22 + x_20_22 + x_21_22 + x_22_22
   + x_23_22 + x_24_22 + x_25_22 = 3.3554406e+07
 R47: x_1_23 + x_2_23 + x_3_23 + x_4_23 + x_5_23 + x_6_23 + x_7_23 + x_8_23
   + x_9_23 + x_10_23 + x_11_23 + x_12_23 + x_13_23 + x_14_23 + x_15_23
   + x_16_23 + x_17_23 + x_18_23 + x_19_23 + x_20_23 + x_21_23 + x_22_23
   + x_23_23 + x_24_23 + x_25_23 = 3.3554406e+07
 R48: x_1_24 + x_2_24 + x_3_24 + x_4_24 + x_5_24 + x_6_24 + x_7_24 + x_8_24
   + x_9_24 + x_10_24 + x_11_24 + x_12_24 + x_13_24 + x_14_24 + x_15_24
   + x_16_24 + x_17_24 + x_18_24 + x_19_24 + x_20_24 + x_21_24 + x_22_24
   + x_23_24 + x_24_24 + x_25_24 = 3.3554406e+07
 R49: x_1_25 + x_2_25 + x_3_25 + x_4_25 + x_5_25 + x_6_25 + x_7_25 + x_8_25
   + x_9_25 + x_10_25 + x_11_25 + x_12_25 + x_13_25 + x_14_25 + x_15_25
   + x_16_25 + x_17_25 + x_18_25 + x_19_25 + x_20_25 + x_21_25 + x_22_25
   + x_23_25 + x_24_25 + x_25_25 = 3.3554406e+07
 R50: x_1_1 + x_1_2 + x_1_3 + x_1_4 + x_1_5 + x_2_1 + x_2_2 + x_2_3 + x_2_4
   + x_2_5 + x_3_1 + x_3_2 + x_3_3 + x_3_4 + x_3_5 + x_4_1 + x_4_2 + x_4_3
   + x_4_4 + x_4_5 + x_5_1 + x_5_2 + x_5_3 + x_5_4 + x_5_5 = 3.3554406e+07
 R51: x_1_6 + x_1_7 + x_1_8 + x_1_9 + x_1_10 + x_2_6 + x_2_7 + x_2_8
   + x_2_9 + x_2_10 + x_3_6 + x_3_7 + x_3_8 + x_3_9 + x_3_10 + x_4_6
   + x_4_7 + x_4_8 + x_4_9 + x_4_10 + x_5_6 + x_5_7 + x_5_8 + x_5_9
   + x_5_10 = 3.3554406e+07
 R52: x_1_11 + x_1_12 + x_1_13 + x_1_14 + x_1_15 + x_2_11 + x_2_12 + x_2_13
   + x_2_14 + x_2_15 + x_3_11 + x_3_12 + x_3_13 + x_3_14 + x_3_15 + x_4_11
   + x_4_12 + x_4_13 + x_4_14 + x_4_15 + x_5_11 + x_5_12 + x_5_13 + x_5_14
   + x_5_15 = 3.3554406e+07
 R53: x_1_16 + x_1_17 + x_1_18 + x_1_19 + x_1_20 + x_2_16 + x_2_17 + x_2_18
   + x_2_19 + x_2_20 + x_3_16 + x_3_17 + x_3_18 + x_3_19 + x_3_20 + x_4_16
   + x_4_17 + x_4_18 + x_4_19 + x_4_20 + x_5_16 + x_5_17 + x_5_18 + x_5_19
   + x_5_20 = 3.3554406e+07
 R54: x_1_21 + x_1_22 + x_1_23 + x_1_24 + x_1_25 + x_2_21 + x_2_22 + x_2_23
   + x_2_24 + x_2_25 + x_3_21 + x_3_22 + x_3_23 + x_3_24 + x_3_25 + x_4_21
   + x_4_22 + x_4_23 + x_4_24 + x_4_25 + x_5_21 + x_5_22 + x_5_23 + x_5_24
   + x_5_25 = 3.3554406e+07
 R55: x_6_1 + x_6_2 + x_6_3 + x_6_4 + x_6_5 + x_7_1 + x_7_2 + x_7_3 + x_7_4
   + x_7_5 + x_8_1 + x_8_2 + x_8_3 + x_8_4 + x_8_5 + x_9_1 + x_9_2 + x_9_3
   + x_9_4 + x_9_5 + x_10_1 + x_10_2 + x_10_3 + x_10_4 + x_10_5
   = 3.3554406e+07
 R56: x_6_6 + x_6_7 + x_6_8 + x_6_9 + x_6_10 + x_7_6 + x_7_7 + x_7_8
   + x_7_9 + x_7_10 + x_8_6 + x_8_7 + x_8_8 + x_8_9 + x_8_10 + x_9_6
   + x_9_7 + x_9_8 + x_9_9 + x_9_10 + x_10_6 + x_10_7 + x_10_8 + x_10_9
   + x_10_10 = 3.3554406e+07
 R57: x_6_11 + x_6_12 + x_6_13 + x_6_14 + x_6_15 + x_7_11 + x_7_12 + x_7_13
   + x_7_14 + x_7_15 + x_8_11 + x_8_12 + x_8_13 + x_8_14 + x_8_15 + x_9_11
   + x_9_12 + x_9_13 + x_9_14 + x_9_15 + x_10_11 + x_10_12 + x_10_13
   + x_10_14 + x_10_15 = 3.3554406e+07
 R58: x_6_16 + x_6_17 + x_6_18 + x_6_19 + x_6_20 + x_7_16 + x_7_17 + x_7_18
   + x_7_19 + x_7_20 + x_8_16 + x_8_17 + x_8_18 + x_8_19 + x_8_20 + x_9_16
   + x_9_17 + x_9_18 + x_9_19 + x_9_20 + x_10_16 + x_10_17 + x_10_18
   + x_10_19 + x_10_20 = 3.3554406e+07
 R59: x_6_21 + x_6_22 + x_6_23 + x_6_24 + x_6_25 + x_7_21 + x_7_22 + x_7_23
   + x_7_24 + x_7_25 + x_8_21 + x_8_22 + x_8_23 + x_8_24 + x_8_25 + x_9_21
   + x_9_22 + x_9_23 + x_9_24 + x_9_25 + x_10_21 + x_10_22 + x_10_23
   + x_10_24 + x_10_25 = 3.3554406e+07
 R60: x_11_1 + x_11_2 + x_11_3 + x_11_4 + x_11_5 + x_12_1 + x_12_2 + x_12_3
   + x_12_4 + x_12_5 + x_13_1 + x_13_2 + x_13_3 + x_13_4 + x_13_5 + x_14_1
   + x_14_2 + x_14_3 + x_14_4 + x_14_5 + x_15_1 + x_15_2 + x_15_3 + x_15_4
   + x_15_5 = 3.3554406e+07
 R61: x_11_6 + x_11_7 + x_11_8 + x_11_9 + x_11_10 + x_12_6 + x_12_7
   + x_12_8 + x_12_9 + x_12_10 + x_13_6 + x_13_7 + x_13_8 + x_13_9
   + x_13_10 + x_14_6 + x_14_7 + x_14_8 + x_14_9 + x_14_10 + x_15_6
   + x_15_7 + x_15_8 + x_15_9 + x_15_10 = 3.3554406e+07
 R62: x_11_11 + x_11_12 + x_11_13 + x_11_14 + x_11_15 + x_12_11 + x_12_12
   + x_12_13 + x_12_14 + x_12_15 + x_13_11 + x_13_12 + x_13_13 + x_13_14
   + x_13_15 + x_14_11 + x_14_12 + x_14_13 + x_14_14 + x_14_15 + x_15_11
   + x_15_12 + x_15_13 + x_15_14 + x_15_15 = 3.3554406e+07
 R63: x_11_16 + x_11_17 + x_11_18 + x_11_19 + x_11_20 + x_12_16 + x_12_17
   + x_12_18 + x_12_19 + x_12_20 + x_13_16 + x_13_17 + x_13_18 + x_13_19
   + x_13_20 + x_14_16 + x_14_17 + x_14_18 + x_14_19 + x_14_20 + x_15_16
   + x_15_17 + x_15_18 + x_15_19 + x_15_20 = 3.3554406e+07
 R64: x_11_21 + x_11_22 + x_11_23 + x_11_24 + x_11_25 + x_12_21 + x_12_22
   + x_12_23 + x_12_24 + x_12_25 + x_13_21 + x_13_22 + x_13_23 + x_13_24
   + x_13_25 + x_14_21 + x_14_22 + x_14_23 + x_14_24 + x_14_25 + x_15_21
   + x_15_22 + x_15_23 + x_15_24 + x_15_25 = 3.3554406e+07
 R65: x_16_1 + x_16_2 + x_16_3 + x_16_4 + x_16_5 + x_17_1 + x_17_2 + x_17_3
   + x_17_4 + x_17_5 + x_18_1 + x_18_2 + x_18_3 + x_18_4 + x_18_5 + x_19_1
   + x_19_2 + x_19_3 + x_19_4 + x_19_5 + x_20_1 + x_20_2 + x_20_3 + x_20_4
   + x_20_5 = 3.3554406e+07
 R66: x_16_6 + x_16_7 + x_16_8 + x_16_9 + x_16_10 + x_17_6 + x_17_7
   + x_17_8 + x_17_9 + x_17_10 + x_18_6 + x_18_7 + x_18_8 + x_18_9
   + x_18_10 + x_19_6 + x_19_7 + x_19_8 + x_19_9 + x_19_10 + x_20_6
   + x_20_7 + x_20_8 + x_20_9 + x_20_10 = 3.3554406e+07
 R67: x_16_11 + x_16_12 + x_16_13 + x_16_14 + x_16_15 + x_17_11 + x_17_12
   + x_17_13 + x_17_14 + x_17_15 + x_18_11 + x_18_12 + x_18_13 + x_18_14
   + x_18_15 + x_19_11 + x_19_12 + x_19_13 + x_19_14 + x_19_15 + x_20_11
   + x_20_12 + x_20_13 + x_20_14 + x_20_15 = 3.3554406e+07
 R68: x_16_16 + x_16_17 + x_16_18 + x_16_19 + x_16_20 + x_17_16 + x_17_17
   + x_17_18 + x_17_19 + x_17_20 + x_18_16 + x_18_17 + x_18_18 + x_18_19
   + x_18_20 + x_19_16 + x_19_17 + x_19_18 + x_19_19 + x_19_20 + x_20_16
   + x_20_17 + x_20_18 + x_20_19 + x_20_20 = 3.3554406e+07
 R69: x_16_21 + x_16_22 + x_16_23 + x_16_24 + x_16_25 + x_17_21 + x_17_22
   + x_17_23 + x_17_24 + x_17_25 + x_18_21 + x_18_22 + x_18_23 + x_18_24
   + x_18_25 + x_19_21 + x_19_22 + x_19_23 + x_19_24 + x_19_25 + x_20_21
   + x_20_22 + x_20_23 + x_20_24 + x_20_25 = 3.3554406e+07
 R70: x_21_1 + x_21_2 + x_21_3 + x_21_4 + x_21_5 + x_22_1 + x_22_2 + x_22_3
   + x_22_4 + x_22_5 + x_23_1 + x_23_2 + x_23_3 + x_23_4 + x_23_5 + x_24_1
   + x_24_2 + x_24_3 + x_24_4 + x_24_5 + x_25_1 + x_25_2 + x_25_3 + x_25_4
   + x_25_5 = 3.3554406e+07
 R71: x_21_6 + x_21_7 + x_21_8 + x_21_9 + x_21_10 + x_22_6 + x_22_7
   + x_22_8 + x_22_9 + x_22_10 + x_23_6 + x_23_7 + x_23_8 + x_23_9
   + x_23_10 + x_24_6 + x_24_7 + x_24_8 + x_24_9 + x_24_10 + x_25_6
   + x_25_7 + x_25_8 + x_25_9 + x_25_10 = 3.3554406e+07
 R72: x_21_11 + x_21_12 + x_21_13 + x_21_14 + x_21_15 + x_22_11 + x_22_12
   + x_22_13 + x_22_14 + x_22_15 + x_23_11 + x_23_12 + x_23_13 + x_23_14
   + x_23_15 + x_24_11 + x_24_12 + x_24_13 + x_24_14 + x_24_15 + x_25_11
   + x_25_12 + x_25_13 + x_25_14 + x_25_15 = 3.3554406e+07
 R73: x_21_16 + x_21_17 + x_21_18 + x_21_19 + x_21_20 + x_22_16 + x_22_17
   + x_22_18 + x_22_19 + x_22_20 + x_23_16 + x_23_17 + x_23_18 + x_23_19
   + x_23_20 + x_24_16 + x_24_17 + x_24_18 + x_24_19 + x_24_20 + x_25_16
   + x_25_17 + x_25_18 + x_25_19 + x_25_20 = 3.3554406e+07
 R74: x_21_21 + x_21_22 + x_21_23 + x_21_24 + x_21_25 + x_22_21 + x_22_22
   + x_22_23 + x_22_24 + x_22_25 + x_23_21 + x_23_22 + x_23_23 + x_23_24
   + x_23_25 + x_24_21 + x_24_22 + x_24_23 + x_24_24 + x_24_25 + x_25_21
   + x_25_22 + x_25_23 + x_25_24 + x_25_25 = 3.3554406e+07
 R75: x_1_6 = 4.194303e+06
 R76: x_1_13 = 31
 R77: x_1_18 = 16383
 R78: x_1_19 = 255
 R79: x_1_20 = 63
 R80: x_1_23 = 1.6777215e+07
 R81: x_2_1 = 3
 R82: x_2_5 = 4.194303e+06
 R83: x_2_6 = 255
 R84: x_2_12 = 262143
 R85: x_2_21 = 4095
 R86: x_2_22 = 0
 R87: x_2_23 = 1
 R88: x_3_1 = 63
 R89: x_3_5 = 524287
 R90: x_3_10 = 1
 R91: x_3_12 = 32767
 R92: x_3_17 = 8.388607e+06
 R93: x_3_20 = 131071
 R94: x_3_25 = 511
 R95: x_4_1 = 7
 R96: x_4_3 = 1.6777215e+07
 R97: x_4_4 = 16383
 R98: x_4_5 = 8191
 R99: x_4_10 = 3
 R100: x_4_12 = 1
 R101: x_4_14 = 2047
 R102: x_4_19 = 511
 R103: x_4_25 = 131071
 R104: x_5_13 = 511
 R105: x_5_21 = 8191
 R106: x_6_3 = 15
 R107: x_6_7 = 2047
 R108: x_6_9 = 127
 R109: x_6_17 = 4.194303e+06
 R110: x_6_19 = 7
 R111: x_6_20 = 1
 R112: x_7_2 = 131071
 R113: x_7_4 = 127
 R114: x_7_7 = 65535
 R115: x_7_8 = 15
 R116: x_7_16 = 63
 R117: x_7_18 = 0
 R118: x_7_19 = 1.6777215e+07
 R119: x_7_22 = 7
 R120: x_8_1 = 8191
 R121: x_8_4 = 4.194303e+06
 R122: x_8_13 = 15
 R123: x_9_2 = 524287
 R124: x_9_6 = 63
 R125: x_9_9 = 1
 R126: x_9_10 = 1.048575e+06
 R127: x_9_11 = 1.6777215e+07
 R128: x_9_13 = 255
 R129: x_9_14 = 131071
 R130: x_9_16 = 3
 R131: x_9_22 = 511
 R132: x_10_5 = 8.388607e+06
 R133: x_10_7 = 7
 R134: x_10_8 = 131071
 R135: x_10_10 = 1.6777215e+07
 R136: x_10_11 = 32767
 R137: x_10_17 = 511
 R138: x_10_19 = 16383
 R139: x_10_20 = 1023
 R140: x_10_23 = 2047
 R141: x_10_24 = 0
 R142: x_11_1 = 1023
 R143: x_11_3 = 63
 R144: x_11_4 = 262143
 R145: x_11_5 = 1
 R146: x_11_7 = 2.097151e+06
 R147: x_11_12 = 3
 R148: x_11_13 = 524287
 R149: x_11_18 = 65535
 R150: x_12_3 = 511
 R151: x_12_6 = 524287
 R152: x_12_11 = 63
 R153: x_12_14 = 262143
 R154: x_12_17 = 4095
 R155: x_13_8 = 511
 R156: x_13_11 = 16383
 R157: x_13_15 = 4095
 R158: x_13_16 = 262143
 R159: x_13_19 = 524287
 R160: x_13_20 = 2.097151e+06
 R161: x_13_24 = 63
 R162: x_14_5 = 2.097151e+06
 R163: x_14_9 = 2047
 R164: x_14_11 = 15
 R165: x_15_6 = 262143
 R166: x_15_8 = 3
 R167: x_15_9 = 4095
 R168: x_15_12 = 8.388607e+06
 R169: x_15_15 = 32767
 R170: x_15_22 = 31
 R171: x_16_3 = 8.388607e+06
 R172: x_16_8 = 1023
 R173: x_16_10 = 262143
 R174: x_16_13 = 63
 R175: x_17_2 = 1023
 R176: x_17_3 = 0
 R177: x_17_12 = 16383
 R178: x_17_19 = 8.388607e+06
 R179: x_17_23 = 4.194303e+06
 R180: x_17_25 = 15
 R181: x_18_4 = 1.6777215e+07
 R182: x_18_6 = 15
 R183: x_18_8 = 127
 R184: x_18_10 = 16383
 R185: x_18_12 = 511
 R186: x_18_15 = 3
 R187: x_18_16 = 0
 R188: x_18_17 = 1023
 R189: x_18_20 = 4.194303e+06
 R190: x_19_2 = 63
 R191: x_19_6 = 1.6777215e+07
 R192: x_19_7 = 8.388607e+06
 R193: x_19_9 = 4.194303e+06
 R194: x_19_13 = 131071
 R195: x_19_16 = 65535
 R196: x_19_21 = 16383
 R197: x_20_4 = 3
 R198: x_20_6 = 2047
 R199: x_20_8 = 7
 R200: x_21_6 = 1023
 R201: x_21_9 = 1.048575e+06
 R202: x_21_18 = 32767
 R203: x_21_19 = 131071
 R204: x_21_24 = 8191
 R205: x_22_2 = 32767
 R206: x_22_7 = 8191
 R207: x_22_14 = 524287
 R208: x_22_15 = 262143
 R209: x_22_16 = 4.194303e+06
 R210: x_22_19 = 31
 R211: x_22_21 = 1.6777215e+07
 R212: x_22_23 = 1023
 R213: x_22_24 = 3
 R214: x_22_25 = 1
 R215: x_23_5 = 262143
 R216: x_23_8 = 2047
 R217: x_23_13 = 16383
 R218: x_23_17 = 1.048575e+06
 R219: x_23_21 = 32767
 R220: x_24_1 = 15
 R221: x_24_2 = 511
 R222: x_24_3 = 524287
 R223: x_24_6 = 31
 R224: x_24_10 = 8.388607e+06
 R225: x_24_18 = 1.6777215e+07
 R226: x_24_21 = 0
 R227: x_25_2 = 1.048575e+06
 R228: x_25_3 = 8191
 R229: x_25_4 = 31
 R230: x_25_5 = 1023
 R231: x_25_12 = 131071
 R232: x_25_16 = 8.388607e+06
 R233: x_25_20 = 15
 R234: x_25_24 = 255
 R235: x_25_25 = 2047
Bounds
Binaries
 x_1_1 x_1_2 x_1_3 x_1_4 x_1_5 x_1_6 x_1_7 x_1_8 x_1_9 x_1_10 x_1_11 x_1_12
 x_1_13 x_1_14 x_1_15 x_1_16 x_1_17 x_1_18 x_1_19 x_1_20 x_1_21 x_1_22
 x_1_23 x_1_24 x_1_25 x_2_1 x_2_2 x_2_3 x_2_4 x_2_5 x_2_6 x_2_7 x_2_8 x_2_9
 x_2_10 x_2_11 x_2_12 x_2_13 x_2_14 x_2_15 x_2_16 x_2_17 x_2_18 x_2_19
 x_2_20 x_2_21 x_2_22 x_2_23 x_2_24 x_2_25 x_3_1 x_3_2 x_3_3 x_3_4 x_3_5
 x_3_6 x_3_7 x_3_8 x_3_9 x_3_10 x_3_11 x_3_12 x_3_13 x_3_14 x_3_15 x_3_16
 x_3_17 x_3_18 x_3_19 x_3_20 x_3_21 x_3_22 x_3_23 x_3_24 x_3_25 x_4_1 x_4_2
 x_4_3 x_4_4 x_4_5 x_4_6 x_4_7 x_4_8 x_4_9 x_4_10 x_4_11 x_4_12 x_4_13
 x_4_14 x_4_15 x_4_16 x_4_17 x_4_18 x_4_19 x_4_20 x_4_21 x_4_22 x_4_23
 x_4_24 x_4_25 x_5_1 x_5_2 x_5_3 x_5_4 x_5_5 x_5_6 x_5_7 x_5_8 x_5_9 x_5_10
 x_5_11 x_5_12 x_5_13 x_5_14 x_5_15 x_5_16 x_5_17 x_5_18 x_5_19 x_5_20
 x_5_21 x_5_22 x_5_23 x_5_24 x_5_25 x_6_1 x_6_2 x_6_3 x_6_4 x_6_5 x_6_6
 x_6_7 x_6_8 x_6_9 x_6_10 x_6_11 x_6_12 x_6_13 x_6_14 x_6_15 x_6_16 x_6_17
 x_6_18 x_6_19 x_6_20 x_6_21 x_6_22 x_6_23 x_6_24 x_6_25 x_7_1 x_7_2 x_7_3
 x_7_4 x_7_5 x_7_6 x_7_7 x_7_8 x_7_9 x_7_10 x_7_11 x_7_12 x_7_13 x_7_14
 x_7_15 x_7_16 x_7_17 x_7_18 x_7_19 x_7_20 x_7_21 x_7_22 x_7_23 x_7_24
 x_7_25 x_8_1 x_8_2 x_8_3 x_8_4 x_8_5 x_8_6 x_8_7 x_8_8 x_8_9 x_8_10 x_8_11
 x_8_12 x_8_13 x_8_14 x_8_15 x_8_16 x_8_17 x_8_18 x_8_19 x_8_20 x_8_21
 x_8_22 x_8_23 x_8_24 x_8_25 x_9_1 x_9_2 x_9_3 x_9_4 x_9_5 x_9_6 x_9_7
 x_9_8 x_9_9 x_9_10 x_9_11 x_9_12 x_9_13 x_9_14 x_9_15 x_9_16 x_9_17 x_9_18
 x_9_19 x_9_20 x_9_21 x_9_22 x_9_23 x_9_24 x_9_25 x_10_1 x_10_2 x_10_3
 x_10_4 x_10_5 x_10_6 x_10_7 x_10_8 x_10_9 x_10_10 x_10_11 x_10_12 x_10_13
 x_10_14 x_10_15 x_10_16 x_10_17 x_10_18 x_10_19 x_10_20 x_10_21 x_10_22
 x_10_23 x_10_24 x_10_25 x_11_1 x_11_2 x_11_3 x_11_4 x_11_5 x_11_6 x_11_7
 x_11_8 x_11_9 x_11_10 x_11_11 x_11_12 x_11_13 x_11_14 x_11_15 x_11_16
 x_11_17 x_11_18 x_11_19 x_11_20 x_11_21 x_11_22 x_11_23 x_11_24 x_11_25
 x_12_1 x_12_2 x_12_3 x_12_4 x_12_5 x_12_6 x_12_7 x_12_8 x_12_9 x_12_10
 x_12_11 x_12_12 x_12_13 x_12_14 x_12_15 x_12_16 x_12_17 x_12_18 x_12_19
 x_12_20 x_12_21 x_12_22 x_12_23 x_12_24 x_12_25 x_13_1 x_13_2 x_13_3
 x_13_4 x_13_5 x_13_6 x_13_7 x_13_8 x_13_9 x_13_10 x_13_11 x_13_12 x_13_13
 x_13_14 x_13_15 x_13_16 x_13_17 x_13_18 x_13_19 x_13_20 x_13_21 x_13_22
 x_13_23 x_13_24 x_13_25 x_14_1 x_14_2 x_14_3 x_14_4 x_14_5 x_14_6 x_14_7
 x_14_8 x_14_9 x_14_10 x_14_11 x_14_12 x_14_13 x_14_14 x_14_15 x_14_16
 x_14_17 x_14_18 x_14_19 x_14_20 x_14_21 x_14_22 x_14_23 x_14_24 x_14_25
 x_15_1 x_15_2 x_15_3 x_15_4 x_15_5 x_15_6 x_15_7 x_15_8 x_15_9 x_15_10
 x_15_11 x_15_12 x_15_13 x_15_14 x_15_15 x_15_16 x_15_17 x_15_18 x_15_19
 x_15_20 x_15_21 x_15_22 x_15_23 x_15_24 x_15_25 x_16_1 x_16_2 x_16_3
 x_16_4 x_16_5 x_16_6 x_16_7 x_16_8 x_16_9 x_16_10 x_16_11 x_16_12 x_16_13
 x_16_14 x_16_15 x_16_16 x_16_17 x_16_18 x_16_19 x_16_20 x_16_21 x_16_22
 x_16_23 x_16_24 x_16_25 x_17_1 x_17_2 x_17_3 x_17_4 x_17_5 x_17_6 x_17_7
 x_17_8 x_17_9 x_17_10 x_17_11 x_17_12 x_17_13 x_17_14 x_17_15 x_17_16
 x_17_17 x_17_18 x_17_19 x_17_20 x_17_21 x_17_22 x_17_23 x_17_24 x_17_25
 x_18_1 x_18_2 x_18_3 x_18_4 x_18_5 x_18_6 x_18_7 x_18_8 x_18_9 x_18_10
 x_18_11 x_18_12 x_18_13 x_18_14 x_18_15 x_18_16 x_18_17 x_18_18 x_18_19
 x_18_20 x_18_21 x_18_22 x_18_23 x_18_24 x_18_25 x_19_1 x_19_2 x_19_3
 x_19_4 x_19_5 x_19_6 x_19_7 x_19_8 x_19_9 x_19_10 x_19_11 x_19_12 x_19_13
 x_19_14 x_19_15 x_19_16 x_19_17 x_19_18 x_19_19 x_19_20 x_19_21 x_19_22
 x_19_23 x_19_24 x_19_25 x_20_1 x_20_2 x_20_3 x_20_4 x_20_5 x_20_6 x_20_7
 x_20_8 x_20_9 x_20_10 x_20_11 x_20_12 x_20_13 x_20_14 x_20_15 x_20_16
 x_20_17 x_20_18 x_20_19 x_20_20 x_20_21 x_20_22 x_20_23 x_20_24 x_20_25
 x_21_1 x_21_2 x_21_3 x_21_4 x_21_5 x_21_6 x_21_7 x_21_8 x_21_9 x_21_10
 x_21_11 x_21_12 x_21_13 x_21_14 x_21_15 x_21_16 x_21_17 x_21_18 x_21_19
 x_21_20 x_21_21 x_21_22 x_21_23 x_21_24 x_21_25 x_22_1 x_22_2 x_22_3
 x_22_4 x_22_5 x_22_6 x_22_7 x_22_8 x_22_9 x_22_10 x_22_11 x_22_12 x_22_13
 x_22_14 x_22_15 x_22_16 x_22_17 x_22_18 x_22_19 x_22_20 x_22_21 x_22_22
 x_22_23 x_22_24 x_22_25 x_23_1 x_23_2 x_23_3 x_23_4 x_23_5 x_23_6 x_23_7
 x_23_8 x_23_9 x_23_10 x_23_11 x_23_12 x_23_13 x_23_14 x_23_15 x_23_16
 x_23_17 x_23_18 x_23_19 x_23_20 x_23_21 x_23_22 x_23_23 x_23_24 x_23_25
 x_24_1 x_24_2 x_24_3 x_24_4 x_24_5 x_24_6 x_24_7 x_24_8 x_24_9 x_24_10
 x_24_11 x_24_12 x_24_13 x_24_14 x_24_15 x_24_16 x_24_17 x_24_18 x_24_19
 x_24_20 x_24_21 x_24_22 x_24_23 x_24_24 x_24_25 x_25_1 x_25_2 x_25_3
 x_25_4 x_25_5 x_25_6 x_25_7 x_25_8 x_25_9 x_25_10 x_25_11 x_25_12 x_25_13
 x_25_14 x_25_15 x_25_16 x_25_17 x_25_18 x_25_19 x_25_20 x_25_21 x_25_22
 x_25_23 x_25_24 x_25_25
End
